
--- Job finalProject.gms Start 02/20/21 12:09:26 34.1.0 r644dbd9 DEX-DEG x86 64bit/Mac OS X
--- Applying:
    /Library/Frameworks/GAMS.framework/Versions/34/Resources/gmsprmun.txt
--- GAMS Parameters defined
    Input /Users/davidmottice/Documents/AFIT/OPER610/projectsVFT/finalProject.gms
    PageSize 0
    ScrDir /Users/davidmottice/Documents/AFIT/OPER610/projectsVFT/225a/
    SysDir /Library/Frameworks/GAMS.framework/Versions/34/Resources/
    LogOption 3
    ErrMsg 1
    ErrorLog 99
    IDE 1
    GDX /Users/davidmottice/Documents/AFIT/OPER610/projectsVFT/finalProject.gdx
    LstTitleLeftAligned 1
Licensee: GAMS Demo license for David Mottice            G210203|0002CO-GEN
          Air Force Institute of Technology, United States of AmeriDL031165
          /Users/davidmottice/Library/Application Support/GAMS/gamslice.txt
          davidmottice.bh@gmail.com, David Mottice                         
          Demo license for demonstration and instructional purposes only
GAMS 34.1.0   Copyright (C) 1987-2021 GAMS Development. All rights reserved
--- Starting compilation
--- finalProject.gms(13) 3 Mb
--- . follower_data.csv(6) 3 Mb
--- finalProject.gms(20) 3 Mb
--- . genre_upper_bound.csv(6) 3 Mb
--- finalProject.gms(27) 3 Mb
--- . ad_lower_bound.csv(7) 3 Mb
--- finalProject.gms(36) 3 Mb
--- . cost_data.csv(8) 3 Mb
--- finalProject.gms(41) 3 Mb
--- . click_rate_data.csv(8) 3 Mb
--- finalProject.gms(71) 3 Mb
--- Starting execution: elapsed 0:00:00.003
--- finalProject.gms(83) 4 Mb
--- Generating LP model spotifyAds
--- finalProject.gms(104) 4 Mb
---   15 rows  43 columns  169 non-zeroes
--- Executing CPLEX (Solvelink=2): elapsed 0:00:00.007

IBM ILOG CPLEX   34.1.0 r644dbd9 Released Jan 29, 2021 DEG x86 64bit/Mac OS X 

--- *** This solver runs with a demo license. No commercial use.
--- GMO memory 0.50 Mb (peak 0.50 Mb)
--- Dictionary memory 0.00 Mb
--- Cplex 20.1.0.0 link memory 0.00 Mb (peak 0.01 Mb)
--- Starting Cplex

Version identifier: 20.1.0.0 | 2020-11-10 | 9bedb6d68
CPXPARAM_Advance                                 0
CPXPARAM_Simplex_Display                         2
CPXPARAM_Threads                                 1
CPXPARAM_MIP_Display                             4
CPXPARAM_MIP_Tolerances_AbsMIPGap                0
Tried aggregator 1 time.
LP Presolve eliminated 4 rows and 16 columns.
Reduced LP has 10 rows, 27 columns, and 68 nonzeros.
Presolve time = 0.00 sec. (0.03 ticks)

Iteration      Dual Objective            In Variable           Out Variable
     1 sI            0.000000x(homepage_takeover,pop           budget artif
     2        14130909.090909x(homepage_takeover,cougenre_diversifica slack
     3        11514285.714286x(sponsored_playlist,pogenre_diversifica slack
     4        11346153.846154x(sponsored_playlist,cox(homepage_takeover,pop
     5        11343211.538462x(audio_everywhere,counad_type_diversifi slack
     6        11342605.769231x(sponsored_session,couad_type_diversifi slack
     7        11341307.692308x(video_takeover,countrad_type_diversifi slack
     8        11337312.062937         x(overlay,rap)ad_type_diversifi slack
     9        11329956.293706 x(leaderboard,country)ad_type_diversifi slack

--- LP status (1): optimal.
--- Cplex Time: 0.00sec (det. 0.06 ticks)


Optimal solution found
Objective:     11329956.293706

--- Reading solution for model spotifyAds
--- Executing after solve: elapsed 0:00:00.032
--- finalProject.gms(106) 4 Mb
--- GDX File /Users/davidmottice/Documents/AFIT/OPER610/projectsVFT/finalProject.gdx
*** Status: Normal completion
--- Job finalProject.gms Stop 02/20/21 12:09:26 elapsed 0:00:00.033
